data/solutions/planning/wellformed/intermediate/weighting/wellformed_intermediate_instance45_cplex.sol
Elapsed time: 6.83
Nodes explored: 4501
Nodes left: 1035
Relative gap: 0.003
Upper bound: 142739413.0
Lower bound: 142735319
C[0]=34858.0
C[1]=34856.0
C[2]=34856.0
C[3]=34856.0
C[4]=34856.0
C[5]=34856.0
C[6]=34856.0
C[7]=34856.0
C[8]=34856.0
C[9]=34856.0
C[10]=34856.0
C[11]=34853.0
y[0]=0
y[1]=0
y[2]=11
y[3]=9
y[4]=10
y[5]=11
y[6]=3
y[7]=11
y[8]=11
y[9]=4
y[10]=11
y[11]=4
y[12]=9
y[13]=7
y[14]=11
y[15]=8
y[16]=6
y[17]=9
y[18]=9
y[19]=11
y[20]=0
y[21]=11
y[22]=7
y[23]=4
y[24]=5
y[25]=5
y[26]=9
y[27]=4
y[28]=11
y[29]=5
y[30]=9
y[31]=4
y[32]=10
y[33]=8
y[34]=7
y[35]=2
y[36]=11
y[37]=8
y[38]=4
y[39]=11
y[40]=11
y[41]=11
y[42]=5
y[43]=5
y[44]=11
y[45]=11
y[46]=8
y[47]=1
y[48]=11
y[49]=11
y[50]=5
y[51]=5
y[52]=8
y[53]=5
y[54]=11
y[55]=10
y[56]=5
y[57]=3
y[58]=2
y[59]=0
y[60]=11
y[61]=11
y[62]=5
y[63]=9
y[64]=11
y[65]=7
y[66]=7
y[67]=11
y[68]=4
y[69]=2
y[70]=7
y[71]=10
y[72]=10
y[73]=6
y[74]=11
y[75]=4
y[76]=5
y[77]=9
y[78]=10
y[79]=3
y[80]=3
y[81]=9
y[82]=9
y[83]=3
y[84]=10
y[85]=4
y[86]=11
y[87]=5
y[88]=4
y[89]=9
y[90]=10
y[91]=11
y[92]=11
y[93]=3
y[94]=3
y[95]=1
y[96]=11
y[97]=4
y[98]=6
y[99]=8
y[100]=4
y[101]=3
y[102]=1
y[103]=11
y[104]=4
y[105]=11
y[106]=11
y[107]=1
y[108]=10
y[109]=3
y[110]=11
y[111]=3
y[112]=10
y[113]=9
y[114]=10
y[115]=11
y[116]=1
y[117]=2
y[118]=0
y[119]=11
y[120]=4
y[121]=9
y[122]=3
y[123]=3
y[124]=3
y[125]=11
y[126]=11
y[127]=8
y[128]=4
y[129]=0
y[130]=11
y[131]=1
y[132]=2
y[133]=10
y[134]=0
y[135]=4
y[136]=11
y[137]=5
y[138]=3
y[139]=7
y[140]=0
y[141]=4
y[142]=2
y[143]=11
y[144]=4
y[145]=11
y[146]=7
y[147]=4
y[148]=4
y[149]=11
y[150]=7
y[151]=11
y[152]=2
y[153]=6
y[154]=0
y[155]=6
y[156]=11
y[157]=6
y[158]=7
y[159]=3
y[160]=9
y[161]=1
y[162]=11
y[163]=11
y[164]=11
y[165]=11
y[166]=0
y[167]=11
y[168]=1
y[169]=3
y[170]=11
y[171]=11
y[172]=11
y[173]=10
y[174]=9
y[175]=11
y[176]=5
y[177]=9
y[178]=5
y[179]=7
y[180]=3
y[181]=3
y[182]=6
y[183]=7
y[184]=11
y[185]=3
y[186]=6
y[187]=10
y[188]=11
y[189]=4
y[190]=3
y[191]=0
y[192]=4
y[193]=11
y[194]=0
y[195]=11
y[196]=5
y[197]=11
y[198]=10
y[199]=6
y[200]=9
y[201]=2
y[202]=4
y[203]=6
y[204]=11
y[205]=11
y[206]=3
y[207]=1
y[208]=11
y[209]=1
y[210]=4
y[211]=4
y[212]=5
y[213]=11
y[214]=8
y[215]=8
y[216]=4
y[217]=8
y[218]=6
y[219]=8
y[220]=4
y[221]=2
y[222]=1
y[223]=4
y[224]=11
y[225]=0
y[226]=7
y[227]=8
y[228]=6
y[229]=11
y[230]=0
y[231]=4
y[232]=0
y[233]=2
y[234]=11
y[235]=11
y[236]=5
y[237]=1
y[238]=6
y[239]=8
y[240]=7
y[241]=11
y[242]=7
y[243]=2
y[244]=2
y[245]=3
y[246]=1
y[247]=11
y[248]=9
y[249]=3
y[250]=11
y[251]=11
y[252]=8
y[253]=1
y[254]=11
y[255]=11
y[256]=11
y[257]=11
y[258]=2
y[259]=5
y[260]=1
y[261]=8
y[262]=6
y[263]=11
y[264]=2
y[265]=0
y[266]=2
y[267]=11
y[268]=4
y[269]=11
y[270]=10
y[271]=0
y[272]=10
y[273]=2
y[274]=11
y[275]=1
y[276]=6
y[277]=11
y[278]=9
y[279]=9
y[280]=7
y[281]=11
y[282]=10
y[283]=9
y[284]=7
y[285]=6
y[286]=11
y[287]=11
y[288]=3
y[289]=0
y[290]=7
y[291]=11
y[292]=6
y[293]=8
y[294]=7
y[295]=1
y[296]=1
y[297]=5
y[298]=4
y[299]=5
y[300]=11
y[301]=3
y[302]=3
y[303]=6
y[304]=3
y[305]=2
y[306]=1
y[307]=11
y[308]=3
y[309]=4
y[310]=6
y[311]=4
y[312]=11
y[313]=11
y[314]=11
y[315]=11
y[316]=11
y[317]=10
y[318]=2
y[319]=2
y[320]=0
y[321]=0
y[322]=4
y[323]=11
y[324]=4
y[325]=8
y[326]=8
y[327]=4
y[328]=9
y[329]=8
y[330]=8
y[331]=4
y[332]=10
y[333]=6
y[334]=11
y[335]=7
y[336]=11
y[337]=8
y[338]=9
y[339]=6
y[340]=8
y[341]=4
y[342]=5
y[343]=4
y[344]=11
y[345]=11
y[346]=7
y[347]=11
y[348]=11
y[349]=10
y[350]=5
y[351]=8
y[352]=11
y[353]=9
y[354]=11
y[355]=10
y[356]=3
y[357]=11
y[358]=11
y[359]=1
y[360]=4
y[361]=8
y[362]=10
y[363]=11
y[364]=6
y[365]=10
y[366]=11
y[367]=8
y[368]=10
y[369]=1
y[370]=0
y[371]=11
y[372]=4
y[373]=10
y[374]=10
y[375]=9
y[376]=11
y[377]=3
y[378]=5
y[379]=11
y[380]=3
y[381]=11
y[382]=11
y[383]=11
y[384]=7
y[385]=2
y[386]=2
y[387]=11
y[388]=7
y[389]=9
y[390]=11
y[391]=3
y[392]=8
y[393]=0
y[394]=1
y[395]=7
y[396]=11
y[397]=10
y[398]=10
y[399]=7
