data/solutions/planning/wellformed/intermediate/weighting/wellformed_intermediate_instance45_cplex.log

Log started (V12.6.3.0) Sat Mar  3 03:43:31 2018

New value for default parallel thread count: 1

Problem '/tmp/tmpBOWBcx.pyomo.lp' read.
Read time = 0.00 sec. (0.28 ticks)

Problem name         : /tmp/tmpBOWBcx.pyomo.lp
Objective sense      : Minimize
Variables            :    4813  [Nneg: 13,  Binary: 4800]
Objective nonzeros   :      12
Linear constraints   :     424  [Less: 11,  Equal: 413]
  Nonzeros           :    9635
  RHS nonzeros       :     401

Variables            : Min LB: 0.000000         Max UB: 1.000000       
Objective nonzeros   : Min   : 1.000000         Max   : 2048.000       
Linear constraints   :
  Nonzeros           : Min   : 1.000000         Max   : 1999.000       
  RHS nonzeros       : Min   : 1.000000         Max   : 1.000000       
Found incumbent of value 8.5661901e+08 after 0.00 sec. (0.39 ticks)
Tried aggregator 2 times.
MIP Presolve eliminated 1 rows and 1 columns.
Aggregator did 2 substitutions.
Reduced MIP has 421 rows, 4810 columns, and 9630 nonzeros.
Reduced MIP has 4800 binaries, 0 generals, 0 SOSs, and 0 indicators.
Presolve time = 0.01 sec. (7.14 ticks)
Tried aggregator 1 time.
Reduced MIP has 421 rows, 4810 columns, and 9630 nonzeros.
Reduced MIP has 4800 binaries, 10 generals, 0 SOSs, and 0 indicators.
Presolve time = 0.01 sec. (4.76 ticks)
Probing fixed 0 vars, tightened 48 bounds.
Probing time = 0.02 sec. (34.65 ticks)
Clique table members: 400.
MIP emphasis: balance optimality and feasibility.
MIP search method: dynamic search.
Parallel mode: none, using 1 thread.
Root relaxation solution time = 0.01 sec. (22.38 ticks)

        Nodes                                         Cuts/
   Node  Left     Objective  IInf  Best Integer    Best Bound    ItCnt     Gap

*     0+    0                       8.56619e+08        0.0000           100.00%
      0     0   1.42735e+08    31   8.56619e+08   1.42735e+08      589   83.34%
      0     0   1.42735e+08    43   8.56619e+08      Cuts: 13      615   83.34%
      0     0   1.42735e+08    37   8.56619e+08       Cuts: 3      629   83.34%
      0     0   1.42735e+08    38   8.56619e+08     Covers: 1      632   83.34%
*     0+    0                       1.47520e+08   1.42735e+08             3.24%
      0     2   1.42735e+08    33   1.47520e+08   1.42735e+08      632    3.24%
Elapsed time = 0.23 sec. (352.71 ticks, tree = 0.01 MB, solutions = 2)
     89    91   1.42735e+08    32   1.47520e+08   1.42735e+08     1189    3.24%
     90    92   1.42735e+08    32   1.47520e+08   1.42735e+08     1190    3.24%
     91    93   1.42735e+08    32   1.47520e+08   1.42735e+08     1191    3.24%
     92    94   1.42735e+08    32   1.47520e+08   1.42735e+08     1194    3.24%
     93    95   1.42735e+08    32   1.47520e+08   1.42735e+08     1197    3.24%
     94    96   1.42735e+08    31   1.47520e+08   1.42735e+08     1206    3.24%
     95    97   1.42735e+08    30   1.47520e+08   1.42735e+08     1212    3.24%
     96    98   1.42735e+08    30   1.47520e+08   1.42735e+08     1218    3.24%
     97    99   1.42735e+08    31   1.47520e+08   1.42735e+08     1226    3.24%
    473   475   1.42735e+08    29   1.47520e+08   1.42735e+08     5689    3.24%
Elapsed time = 0.87 sec. (1306.80 ticks, tree = 3.59 MB, solutions = 2)
*   993+  646                       1.44636e+08   1.42735e+08             1.31%
*   993+  430                       1.43911e+08   1.42735e+08             0.82%
*   993+  286                       1.43447e+08   1.42735e+08             0.50%
    993   287   1.42735e+08    33   1.43447e+08   1.42735e+08     9377    0.50%
    994   287   1.42735e+08    32   1.43447e+08   1.42735e+08     9378    0.50%
    995   288   1.42735e+08    31   1.43447e+08   1.42735e+08     9379    0.50%
    996   289   1.42735e+08    30   1.43447e+08   1.42735e+08     9380    0.50%
    997   289   1.42735e+08    29   1.43447e+08   1.42735e+08     9381    0.50%
    998   290   1.42735e+08    28   1.43447e+08   1.42735e+08     9382    0.50%
    999   291   1.42735e+08    27   1.43447e+08   1.42735e+08     9383    0.50%
   1000   291   1.42735e+08    26   1.43447e+08   1.42735e+08     9384    0.50%
   1001   292   1.42735e+08    25   1.43447e+08   1.42735e+08     9385    0.50%
   1002   293   1.42736e+08    31   1.43447e+08   1.42735e+08     9393    0.50%
Elapsed time = 2.05 sec. (2883.70 ticks, tree = 2.31 MB, solutions = 5)
   1251   438   1.42735e+08    17   1.43447e+08   1.42735e+08    10511    0.50%
   1252   438   1.42735e+08    17   1.43447e+08   1.42735e+08    10531    0.50%
   1253   438   1.42735e+08    20   1.43447e+08   1.42735e+08    10541    0.50%
   1254   439   1.42735e+08    18   1.43447e+08   1.42735e+08    10542    0.50%
   1255   439   1.42735e+08    17   1.43447e+08   1.42735e+08    10545    0.50%
   1256   439   1.42735e+08    17   1.43447e+08   1.42735e+08    10550    0.50%
   1257   440   1.42735e+08    20   1.43447e+08   1.42735e+08    10565    0.50%
   1258   440   1.42735e+08    18   1.43447e+08   1.42735e+08    10566    0.50%
   1259   440   1.42735e+08    20   1.43447e+08   1.42735e+08    10581    0.50%
   1260   440   1.42735e+08    18   1.43447e+08   1.42735e+08    10582    0.50%
Elapsed time = 2.76 sec. (3871.12 ticks, tree = 3.31 MB, solutions = 5)
   1536   595   1.42735e+08    22   1.43447e+08   1.42735e+08    11979    0.50%
   1537   596   1.42735e+08    22   1.43447e+08   1.42735e+08    11980    0.50%
   1538   596   1.42735e+08    22   1.43447e+08   1.42735e+08    11981    0.50%
   1539   596   1.42735e+08    22   1.43447e+08   1.42735e+08    11982    0.50%
   1540   597   1.42735e+08    22   1.43447e+08   1.42735e+08    11983    0.50%
   1541   598   1.42735e+08    21   1.43447e+08   1.42735e+08    11985    0.50%
   1542   599   1.42735e+08    22   1.43447e+08   1.42735e+08    11987    0.50%
   1543   599   1.42735e+08    21   1.43447e+08   1.42735e+08    11991    0.50%
   1544   599   1.42735e+08    21   1.43447e+08   1.42735e+08    11993    0.50%
   1545   600   1.42735e+08    21   1.43447e+08   1.42735e+08    11994    0.50%
Elapsed time = 3.57 sec. (4847.18 ticks, tree = 4.57 MB, solutions = 5)
   1935   832   1.42735e+08    15   1.43447e+08   1.42735e+08    13014    0.50%
   1936   833   1.42735e+08    16   1.43447e+08   1.42735e+08    13032    0.50%
   1937   834   1.42735e+08    16   1.43447e+08   1.42735e+08    13033    0.50%
   1938   835   1.42735e+08    15   1.43447e+08   1.42735e+08    13034    0.50%
   1939   836   1.42735e+08    16   1.43447e+08   1.42735e+08    13037    0.50%
   1940   837   1.42735e+08    16   1.43447e+08   1.42735e+08    13039    0.50%
   1941   838   1.42735e+08    16   1.43447e+08   1.42735e+08    13049    0.50%
   1942   839   1.42735e+08    16   1.43447e+08   1.42735e+08    13050    0.50%
   1943   840   1.42735e+08    16   1.43447e+08   1.42735e+08    13052    0.50%
   1944   841   1.42735e+08    16   1.43447e+08   1.42735e+08    13054    0.50%
Elapsed time = 4.30 sec. (5818.98 ticks, tree = 6.60 MB, solutions = 5)
*  1993+  859                       1.43446e+08   1.42735e+08             0.50%
   2691  1076   1.42735e+08    12   1.43446e+08   1.42735e+08    14628    0.50%
   2692  1077   1.42735e+08    12   1.43446e+08   1.42735e+08    14629    0.50%
*  2693+ 1076                       1.43440e+08   1.42735e+08             0.49%
   2693  1078   1.42735e+08    12   1.43440e+08   1.42735e+08    14630    0.49%
   2694  1079   1.42735e+08    12   1.43440e+08   1.42735e+08    14631    0.49%
   2695  1080   1.42735e+08    12   1.43440e+08   1.42735e+08    14632    0.49%
   2696  1081   1.42735e+08    12   1.43440e+08   1.42735e+08    14633    0.49%
   2697  1082   1.42735e+08    12   1.43440e+08   1.42735e+08    14636    0.49%
   2698  1083   1.42735e+08    14   1.43440e+08   1.42735e+08    14637    0.49%
   2699  1084   1.42735e+08    14   1.43440e+08   1.42735e+08    14639    0.49%
   2700  1084   1.42735e+08    16   1.43440e+08   1.42735e+08    14640    0.49%
Elapsed time = 5.08 sec. (6801.57 ticks, tree = 8.70 MB, solutions = 7)
*  2793+ 1115                       1.43440e+08   1.42735e+08             0.49%
   3812  1356   1.42735e+08    13   1.43440e+08   1.42735e+08    16003    0.49%
   3813  1357   1.42735e+08    13   1.43440e+08   1.42735e+08    16004    0.49%
   3814  1358   1.42735e+08    13   1.43440e+08   1.42735e+08    16005    0.49%
   3815  1359   1.42735e+08    13   1.43440e+08   1.42735e+08    16006    0.49%
   3816  1360   1.42735e+08    13   1.43440e+08   1.42735e+08    16007    0.49%
   3817  1361   1.42735e+08    13   1.43440e+08   1.42735e+08    16008    0.49%
   3818  1362   1.42735e+08    13   1.43440e+08   1.42735e+08    16009    0.49%
   3819  1363   1.42735e+08    13   1.43440e+08   1.42735e+08    16010    0.49%
   3820  1364   1.42735e+08    13   1.43440e+08   1.42735e+08    16011    0.49%
   3821  1365   1.42735e+08    13   1.43440e+08   1.42735e+08    16012    0.49%
Elapsed time = 5.75 sec. (7764.89 ticks, tree = 11.16 MB, solutions = 8)
   4345  1164   1.42735e+08    16   1.43440e+08   1.42735e+08    19501    0.49%
   4346  1165   1.42735e+08    16   1.43440e+08   1.42735e+08    19514    0.49%
   4347  1165   1.42735e+08    14   1.43440e+08   1.42735e+08    19517    0.49%
   4348  1164    infeasible         1.43440e+08   1.42735e+08    19517    0.49%
   4349  1165   1.42735e+08    16   1.43440e+08   1.42735e+08    19518    0.49%
   4350  1166   1.42735e+08    16   1.43440e+08   1.42735e+08    19533    0.49%
   4351  1167   1.42735e+08    16   1.43440e+08   1.42735e+08    19535    0.49%
   4352  1168   1.42735e+08    15   1.43440e+08   1.42735e+08    19537    0.49%
   4353  1169   1.42735e+08    15   1.43440e+08   1.42735e+08    19539    0.49%
   4354  1170   1.42735e+08    16   1.43440e+08   1.42735e+08    19542    0.49%
Elapsed time = 6.50 sec. (8810.78 ticks, tree = 9.48 MB, solutions = 8)
*  4453+ 1029                       1.42764e+08   1.42735e+08             0.02%
*  4483+ 1052                       1.42752e+08   1.42735e+08             0.01%
*  4500  1035      integral     0   1.42739e+08   1.42735e+08    19816    0.00%

Mixed integer rounding cuts applied:  3

Root node processing (before b&c):
  Real time             =    0.23 sec. (352.96 ticks)
Sequential b&c:
  Real time             =    6.58 sec. (8901.61 ticks)
                          ------------
Total (root+branch&cut) =    6.81 sec. (9254.56 ticks)

Solution pool: 11 solutions saved.

MIP - Integer optimal, tolerance (0.0001/1e-06):  Objective =  1.4273941300e+08
Current MIP best bound =  1.4273531900e+08 (gap = 4094, 0.00%)
Solution time =    6.81 sec.  Iterations = 19816  Nodes = 4501 (1035)
Deterministic time = 9254.58 ticks  (1358.55 ticks/sec)


Incumbent solution written to file '/tmp/tmphKCp1X.cplex.sol'.
